5 5
4 3 5 18 1 12 3 5 1 2 20 1 3 12 2 5 7 2 8
5 1 1 14 1 2 2 1 2 12 2 1 16 5 10 1 4 8
7 5 2 7 4 4 5 11 1 18 3 4 1 2 13 4 3 12 4 20 2 14 1 15 5 2 14 1 7 5 7 3 9 4 19 4 5 19 2 4 1 7 4 16 5 1 7 4 15 5 6 3 14 2 18 3 2 2 5 4 3 14
7 3 1 4 4 8 2 16 4 4 8 2 9 1 7 3 9 4 5 5 2 9 3 19 4 6 2 5 14 3 4 2 1 20 5 20 4 4 11 3 6 1 14 5 10 2 3 18 2 20
6 1 5 17 4 2 20 5 10 3 5 4 12 3 3 5 2 20 1 18 2 4 11 2 13 1 5 10 1 1 7